
  22   10
  10   10   10   10   10   10   10   10   10   10

   0   0   0   0   0   0   0   0   0   0   0   4 2 5 6 10 
   8  10  10  10  10  10  10  10  10  10  10   2 21 3 
   8  10  10  10  10  10  10  10  10  10  10   1 4 
   2  10  10  10  10  10  10  10  10  10  10   2 20 7 
   3  10  10  10  10  10  10  10  10  10  10   3 20 19 8 
   8  10  10  10  10  10  10  10  10  10  10   3 20 19 8 
   3  10  10  10  10  10  10  10  10  10  10   2 19 8 
   7  10  10  10  10  10  10  10  10  10  10   1 9 
   6  10  10  10  10  10  10  10  10  10  10   3 18 16 11 
   3  10  10  10  10  10  10  10  10  10  10   4 21 16 15 13 
   8  10  10  10  10  10  10  10  10  10  10   3 17 15 12 
   4  10  10  10  10  10  10  10  10  10  10   1 13 
   5  10  10  10  10  10  10  10  10  10  10   1 14 
   7  10  10  10  10  10  10  10  10  10  10   1 22
   8  10  10  10  10  10  10  10  10  10  10   1 22
   6  10  10  10  10  10  10  10  10  10  10   1 22
  10  10  10  10  10  10  10  10  10  10  10   1 22
   1  10  10  10  10  10  10  10  10  10  10   1 22
   4  10  10  10  10  10  10  10  10  10  10   1 22
   8  10  10  10  10  10  10  10  10  10  10   1 22
   8  10  10  10  10  10  10  10  10  10  10   1 22
   0   0   0   0   0   0   0   0   0   0   0   0 
